proyfinal/src/viki/013/experimentInOfficeAgust.take6.output/2a1b90a9-36bf-49e5-b168-628c51911ebf.als.out
Reading from standard input... Use '--help' for help.
============================[ Problem Statistics ]=============================
|                                                                             |
|  Number of variables:         87638                                         |
|  Number of clauses:          161767                                         |
|  Parse time:                   0.03 s                                       |
|                                                                             |
============================[ Search Statistics ]==============================
| Conflicts |          ORIGINAL         |          LEARNT          | Progress |
|           |    Vars  Clauses Literals |    Limit  Clauses Lit/Cl |          |
===============================================================================
|       100 |   63866   110527   276123 |    40526      100     14 | 27.125 % |
|       250 |   63866   110527   276123 |    44579      250     28 | 27.125 % |
|       475 |   63866   110527   276123 |    49037      475     52 | 27.125 % |
|       812 |   63866   110527   276123 |    53940      812    104 | 27.125 % |
|      1318 |   63866   110527   276123 |    59334     1318     94 | 27.125 % |
|      2077 |   63866   110527   276123 |    65268     2077    106 | 27.125 % |
|      3216 |   63866   110527   276123 |    71795     3216    126 | 27.125 % |
|      4924 |   63865   110483   276033 |    78974     4920    131 | 27.126 % |
|      7486 |   63865   110483   276033 |    86872     7482    123 | 27.126 % |
|     11330 |   63846   110407   275857 |    95559    11324    132 | 27.148 % |
===============================================================================
restarts              : 62
conflicts             : 14887          (6517 /sec)
decisions             : 62684          (0.00 % random) (27440 /sec)
propagations          : 22693055       (9933828 /sec)
conflict literals     : 2008468        (36.12 % deleted)
Memory used           : 37.44 MB
CPU time              : 2.28442 s

INDETERMINATE
